NAME : P-n16-k8
COMMENT : (Augerat et al, No of trucks: 8, Optimal value: 450)
TYPE : CVRP
DIMENSION : 16
EDGE_WEIGHT_TYPE : EUC_2D
CAPACITY : 35
NODE_COORD_SECTION
1 37 52
2 49 49
3 52 64
4 31 62
5 52 33
6 42 41
7 52 41
8 57 58
9 62 42
10 42 57
11 27 68
12 43 67
13 58 48
14 58 27
15 37 69
DEMAND_SECTION
1 19
2 30
3 16
4 23
5 11
6 31
7 15
8 28
9 8
10 8
11 7
12 14
13 6
14 19
15 11
DEPOT_SECTION
 1
 -1
EOF
